(set-info :smt-lib-version 2.6)
(set-logic UF)
(set-info :source |Benchmarks from the paper: "Extending Sledgehammer with SMT Solvers" by Jasmin Blanchette, Sascha Bohme, and Lawrence C. Paulson, CADE 2011.  Translated to SMT2 by Andrew Reynolds and Morgan Deters.|)
(set-info :category "industrial")
(set-info :status unsat)
(declare-sort S1 0)
(declare-sort S2 0)
(declare-sort S3 0)
(declare-sort S4 0)
(declare-sort S5 0)
(declare-sort S6 0)
(declare-sort S7 0)
(declare-fun f1 () S1)
(declare-fun f2 () S1)
(declare-fun f3 (S2 S3) S4)
(declare-fun f4 (S5 S4) S2)
(declare-fun f5 () S5)
(declare-fun f6 (S6 S4) S4)
(declare-fun f7 (S7 S4) S6)
(declare-fun f8 () S7)
(declare-fun f9 () S7)
(declare-fun f10 () S7)
(declare-fun f11 () S6)
(declare-fun f12 () S6)
(declare-fun f13 () S6)
(declare-fun f14 () S4)
(declare-fun f15 () S4)
(declare-fun f16 () S4)
(declare-fun f17 (S4) S3)
(assert (not (= f1 f2)))
(assert (let ((?v_0 (f6 f12 (f6 f13 f14)))) (let ((?v_1 (f6 (f7 f9 (f6 (f7 f10 (f6 f11 (f6 f12 ?v_0))) f15)) f16))) (let ((?v_2 (f6 (f7 f8 ?v_1) f16))) (not (= (f3 (f4 f5 ?v_2) (f17 ?v_0)) (f6 (f7 f8 (f6 (f7 f10 ?v_1) ?v_2)) (f6 (f7 f10 f16) ?v_2))))))))
(assert (forall ((?v0 S4)) (= (f3 (f4 f5 ?v0) (f17 (f6 f12 (f6 f13 f14)))) (f6 (f7 f10 ?v0) ?v0))))
(assert (forall ((?v0 S4) (?v1 S4)) (= (f6 (f7 f10 ?v0) ?v1) (f6 (f7 f10 ?v1) ?v0))))
(assert (forall ((?v0 S4)) (= (f6 (f7 f10 ?v0) f16) ?v0)))
(assert (forall ((?v0 S4) (?v1 S4) (?v2 S4)) (let ((?v_0 (f7 f10 ?v0))) (= (f6 ?v_0 (f6 (f7 f8 ?v1) ?v2)) (f6 (f7 f8 (f6 ?v_0 ?v1)) (f6 ?v_0 ?v2))))))
(check-sat)
(exit)
